letting n =  10
letting blocks =  [[1, 2], [1, 3], [1, 9], [1, 10], [2, 3], [2, 8], [3, 4], [3, 6], [3, 7], [3, 10], [4, 4], [4, 5], [5, 1], [5, 4], [5, 6], [5, 8], [5, 9], [5, 10], [6, 1], [6, 3], [6, 6], [6, 7], [6, 9], [7, 2], [7, 3], [7, 5], [7, 6], [7, 9], [7, 10], [8, 3], [8, 4], [8, 5], [8, 6], [8, 8], [9, 4], [9, 5], [9, 6], [9, 10], [10, 3], [10, 4], [10, 5], [10, 8], [10, 9], [10, 10]]
